gil262_1
0 175 236 94 69 143 226 23 253 237 50 114 255 64 174 71 44 90 213 257 52 36 187 59 125 115 78 5 247 169 137 182 232 77 218 95 162 48 229 14 126 160 38 21 165 260 133 201 70 195 242 2 113 76 135 130 15 116 37 258 168 251 204 196 230 100 259 98 161 131 10 156 103 105 199 173 58 192 75 140 34 132 35 248 123 208 60 186 155 129 104 190 239 32 121 170 72 122 53 222 4 110 252 119 224 57 191 228 212 56 49 234 97 144 109 79 148 27 5 22 54 209 92 180 67 29 238 193 183 181 18 202 124 108 210 85 219 203 91 31 197 12 30 149 61 141 233 80 154 214 166 112 198 157 256 120 167 111 3 150 33 127 93 16 200 107 46 194 40 172 176 152 153 227 20 158 261 74 55 235 51 5 68 254 188 87 231 28 96 147 249 81 189 0